\* Milatog_1 *\
Minimize
OBJ: 121496.76 x_1_F1 + 178563.42 x_1_F2 + 120707.82 x_1_F3 + 195043.5 x_1_F4
 + 119524.41 x_1_F5 + 95987.7 x_1_F6 + 77272.29 x_1_F7 + 142009.2 x_2_F1
 + 143587.08 x_2_F2 + 110276.28 x_2_F3 + 214767 x_2_F4 + 59170.5 x_2_F5
 + 102562.2 x_2_F6 + 162083.34 x_2_F7 + 180930.24 x_3_F1 + 144814.32 x_3_F2
 + 111269.76 x_3_F3 + 189930 x_3_F4 + 116763.12 x_3_F5 + 56102.4 x_3_F6
 + 148262.28 x_3_F7 + 110451.6 x_4_F1 + 180404.28 x_4_F2 + 62589.24 x_4_F3
 + 284895 x_4_F4 + 106506.9 x_4_F5 + 128860.2 x_4_F6 + 86695.74 x_4_F7
 + 203546.52 x_5_F1 + 156473.1 x_5_F2 + 114746.94 x_5_F3 + 177511.5 x_5_F4
 + 53253.45 x_5_F5 + 95987.7 x_5_F6 + 145121.13 x_5_F7 + 122548.68 x_6_F1
 + 135610.02 x_6_F2 + 181310.1 x_6_F3 + 196504.5 x_6_F4 + 110846.07 x_6_F5
 + 102123.9 x_6_F6 + 70989.99 x_6_F7 + 321420 y_1 + 350640 y_2 + 379860 y_3
 + 401775 y_4 + 350640 y_5 + 336030 y_6
Subject To
Bounds
 x_1_F1 <= 1
 x_1_F2 <= 1
 x_1_F3 <= 1
 x_1_F4 <= 1
 x_1_F5 <= 1
 x_1_F6 <= 1
 x_1_F7 <= 1
 x_2_F1 <= 1
 x_2_F2 <= 1
 x_2_F3 <= 1
 x_2_F4 <= 1
 x_2_F5 <= 1
 x_2_F6 <= 1
 x_2_F7 <= 1
 x_3_F1 <= 1
 x_3_F2 <= 1
 x_3_F3 <= 1
 x_3_F4 <= 1
 x_3_F5 <= 1
 x_3_F6 <= 1
 x_3_F7 <= 1
 x_4_F1 <= 1
 x_4_F2 <= 1
 x_4_F3 <= 1
 x_4_F4 <= 1
 x_4_F5 <= 1
 x_4_F6 <= 1
 x_4_F7 <= 1
 x_5_F1 <= 1
 x_5_F2 <= 1
 x_5_F3 <= 1
 x_5_F4 <= 1
 x_5_F5 <= 1
 x_5_F6 <= 1
 x_5_F7 <= 1
 x_6_F1 <= 1
 x_6_F2 <= 1
 x_6_F3 <= 1
 x_6_F4 <= 1
 x_6_F5 <= 1
 x_6_F6 <= 1
 x_6_F7 <= 1
Binaries
y_1
y_2
y_3
y_4
y_5
y_6
End
